n_res = 4;
rc = [ 0, 0, 0, 0 ];
n_tasks = 30;
d = [ 2, 5, 8, 6, 8, 1, 4, 1, 8, 5, 2, 4, 9, 5, 9, 2, 7, 2, 4, 1, 9, 5, 3, 3, 4, 10, 2, 5, 1, 8 ];
rr = [| 0, 0, 0, 0, 0, 0, 0, 0, 0, 0, 0, 0, 0, 0, 0, 0, 0, 0, 0, 0, 0, 0, 0, 0, 0, 0, 0, 0, 0, 0
      | 0, 0, 0, 0, 0, 0, 0, 0, 0, 0, 0, 0, 0, 0, 0, 0, 0, 0, 0, 0, 0, 0, 0, 0, 0, 0, 0, 0, 0, 0
      | 0, 0, 0, 0, 0, 0, 0, 0, 0, 0, 0, 0, 0, 0, 0, 0, 0, 0, 0, 0, 0, 0, 0, 0, 0, 0, 0, 0, 0, 0
      | 0, 0, 0, 0, 0, 0, 0, 0, 0, 0, 0, 0, 0, 0, 0, 0, 0, 0, 0, 0, 0, 0, 0, 0, 0, 0, 0, 0, 0, 0 |];
suc = [ { 6, 9, 21 },
       { 21 },
       { 4, 5, 7 },
       { 11, 20, 24 },
       { 6, 8, 13 },
       { 22 },
       { 10, 25 },
       { 15, 16, 17 },
       { 14, 20 },
       { 18, 23, 24 },
       { 12 },
       { 15 },
       { 19, 20 },
       { 18, 29 },
       { 23, 25, 27 },
       { 18, 28 },
       { 19, 26 },
       { 30 },
       { 27 },
       { 22, 26 },
       { 22, 24, 25 },
       { 27 },
       { 26, 28 },
       { 28 },
       { 29, 30 },
       { 30 },
       { 29 },
       {  },
       {  },
       {  } ];
